row=7;
column=7;
Board=[|0,0,0,7,0,0,0|0,7,2,6,0,5,0|4,0,6,0,5,0,2|0,1,0,5,2,4,6|0,0,7,0,0,2,5|0,0,1,4,0,0,3|5,6,4,2,0,1,7|];
OE=[|0,0,1,1,1,1,0|1,1,0,0,0,1,1|0,1,0,1,1,1,0|1,1,1,1,0,0,0|1,0,1,1,0,0,1|0,1,1,0,1,0,1|1,0,0,0,1,1,1|];
